Minimize
 obj:  [ 4.0 x2_1 * x5_2 ]/2 +  [ 4.0 x5_1 * x2_2 ]/2 +  [ 4.0 x2_2 * x5_3 ]/2 +  [ 4.0 x5_2 * x2_3 ]/2 +  [ 4.0 x2_3 * x5_4 ]/2 +  [ 4.0 x5_3 * x2_4 ]/2 +  [ 4.0 x2_4 * x5_5 ]/2 +  [ 4.0 x5_4 * x2_5 ]/2 +  [ 4.0 x2_5 * x5_6 ]/2 +  [ 4.0 x5_5 * x2_6 ]/2 +  [ 20.0 x2_1 * x1_2 ]/2 +  [ 20.0 x1_1 * x2_2 ]/2 +  [ 20.0 x2_2 * x1_3 ]/2 +  [ 20.0 x1_2 * x2_3 ]/2 +  [ 20.0 x2_3 * x1_4 ]/2 +  [ 20.0 x1_3 * x2_4 ]/2 +  [ 20.0 x2_4 * x1_5 ]/2 +  [ 20.0 x1_4 * x2_5 ]/2 +  [ 20.0 x2_5 * x1_6 ]/2 +  [ 20.0 x1_5 * x2_6 ]/2 +  [ 22.0 x2_1 * x3_2 ]/2 +  [ 22.0 x3_1 * x2_2 ]/2 +  [ 22.0 x2_2 * x3_3 ]/2 +  [ 22.0 x3_2 * x2_3 ]/2 +  [ 22.0 x2_3 * x3_4 ]/2 +  [ 22.0 x3_3 * x2_4 ]/2 +  [ 22.0 x2_4 * x3_5 ]/2 +  [ 22.0 x3_4 * x2_5 ]/2 +  [ 22.0 x2_5 * x3_6 ]/2 +  [ 22.0 x3_5 * x2_6 ]/2 +  [ 18.0 x2_1 * x0_2 ]/2 +  [ 18.0 x0_1 * x2_2 ]/2 +  [ 18.0 x2_2 * x0_3 ]/2 +  [ 18.0 x0_2 * x2_3 ]/2 +  [ 18.0 x2_3 * x0_4 ]/2 +  [ 18.0 x0_3 * x2_4 ]/2 +  [ 18.0 x2_4 * x0_5 ]/2 +  [ 18.0 x0_4 * x2_5 ]/2 +  [ 18.0 x2_5 * x0_6 ]/2 +  [ 18.0 x0_5 * x2_6 ]/2 +  [ 4.0 x2_1 * x4_2 ]/2 +  [ 4.0 x4_1 * x2_2 ]/2 +  [ 4.0 x2_2 * x4_3 ]/2 +  [ 4.0 x4_2 * x2_3 ]/2 +  [ 4.0 x2_3 * x4_4 ]/2 +  [ 4.0 x4_3 * x2_4 ]/2 +  [ 4.0 x2_4 * x4_5 ]/2 +  [ 4.0 x4_4 * x2_5 ]/2 +  [ 4.0 x2_5 * x4_6 ]/2 +  [ 4.0 x4_5 * x2_6 ]/2 +  [ 2.0 x5_1 * x1_2 ]/2 +  [ 2.0 x1_1 * x5_2 ]/2 +  [ 2.0 x5_2 * x1_3 ]/2 +  [ 2.0 x1_2 * x5_3 ]/2 +  [ 2.0 x5_3 * x1_4 ]/2 +  [ 2.0 x1_3 * x5_4 ]/2 +  [ 2.0 x5_4 * x1_5 ]/2 +  [ 2.0 x1_4 * x5_5 ]/2 +  [ 2.0 x5_5 * x1_6 ]/2 +  [ 2.0 x1_5 * x5_6 ]/2 +  [ 12.0 x5_1 * x3_2 ]/2 +  [ 12.0 x3_1 * x5_2 ]/2 +  [ 12.0 x5_2 * x3_3 ]/2 +  [ 12.0 x3_2 * x5_3 ]/2 +  [ 12.0 x5_3 * x3_4 ]/2 +  [ 12.0 x3_3 * x5_4 ]/2 +  [ 12.0 x5_4 * x3_5 ]/2 +  [ 12.0 x3_4 * x5_5 ]/2 +  [ 12.0 x5_5 * x3_6 ]/2 +  [ 12.0 x3_5 * x5_6 ]/2 +  [ 28.0 x5_1 * x0_2 ]/2 +  [ 28.0 x0_1 * x5_2 ]/2 +  [ 28.0 x5_2 * x0_3 ]/2 +  [ 28.0 x0_2 * x5_3 ]/2 +  [ 28.0 x5_3 * x0_4 ]/2 +  [ 28.0 x0_3 * x5_4 ]/2 +  [ 28.0 x5_4 * x0_5 ]/2 +  [ 28.0 x0_4 * x5_5 ]/2 +  [ 28.0 x5_5 * x0_6 ]/2 +  [ 28.0 x0_5 * x5_6 ]/2 +  [ 18.0 x5_1 * x4_2 ]/2 +  [ 18.0 x4_1 * x5_2 ]/2 +  [ 18.0 x5_2 * x4_3 ]/2 +  [ 18.0 x4_2 * x5_3 ]/2 +  [ 18.0 x5_3 * x4_4 ]/2 +  [ 18.0 x4_3 * x5_4 ]/2 +  [ 18.0 x5_4 * x4_5 ]/2 +  [ 18.0 x4_4 * x5_5 ]/2 +  [ 18.0 x5_5 * x4_6 ]/2 +  [ 18.0 x4_5 * x5_6 ]/2 +  [ 14.0 x1_1 * x0_2 ]/2 +  [ 14.0 x0_1 * x1_2 ]/2 +  [ 14.0 x1_2 * x0_3 ]/2 +  [ 14.0 x0_2 * x1_3 ]/2 +  [ 14.0 x1_3 * x0_4 ]/2 +  [ 14.0 x0_3 * x1_4 ]/2 +  [ 14.0 x1_4 * x0_5 ]/2 +  [ 14.0 x0_4 * x1_5 ]/2 +  [ 14.0 x1_5 * x0_6 ]/2 +  [ 14.0 x0_5 * x1_6 ]/2 +  [ 4.0 x1_1 * x4_2 ]/2 +  [ 4.0 x4_1 * x1_2 ]/2 +  [ 4.0 x1_2 * x4_3 ]/2 +  [ 4.0 x4_2 * x1_3 ]/2 +  [ 4.0 x1_3 * x4_4 ]/2 +  [ 4.0 x4_3 * x1_4 ]/2 +  [ 4.0 x1_4 * x4_5 ]/2 +  [ 4.0 x4_4 * x1_5 ]/2 +  [ 4.0 x1_5 * x4_6 ]/2 +  [ 4.0 x4_5 * x1_6 ]/2 +  [ 30.0 x1_1 * x3_2 ]/2 +  [ 30.0 x3_1 * x1_2 ]/2 +  [ 30.0 x1_2 * x3_3 ]/2 +  [ 30.0 x3_2 * x1_3 ]/2 +  [ 30.0 x1_3 * x3_4 ]/2 +  [ 30.0 x3_3 * x1_4 ]/2 +  [ 30.0 x1_4 * x3_5 ]/2 +  [ 30.0 x3_4 * x1_5 ]/2 +  [ 30.0 x1_5 * x3_6 ]/2 +  [ 30.0 x3_5 * x1_6 ]/2 +  [ 12.0 x3_1 * x4_2 ]/2 +  [ 12.0 x4_1 * x3_2 ]/2 +  [ 12.0 x3_2 * x4_3 ]/2 +  [ 12.0 x4_2 * x3_3 ]/2 +  [ 12.0 x3_3 * x4_4 ]/2 +  [ 12.0 x4_3 * x3_4 ]/2 +  [ 12.0 x3_4 * x4_5 ]/2 +  [ 12.0 x4_4 * x3_5 ]/2 +  [ 12.0 x3_5 * x4_6 ]/2 +  [ 12.0 x4_5 * x3_6 ]/2 +  [ 6.0 x3_1 * x0_2 ]/2 +  [ 6.0 x0_1 * x3_2 ]/2 +  [ 6.0 x3_2 * x0_3 ]/2 +  [ 6.0 x0_2 * x3_3 ]/2 +  [ 6.0 x3_3 * x0_4 ]/2 +  [ 6.0 x0_3 * x3_4 ]/2 +  [ 6.0 x3_4 * x0_5 ]/2 +  [ 6.0 x0_4 * x3_5 ]/2 +  [ 6.0 x3_5 * x0_6 ]/2 +  [ 6.0 x0_5 * x3_6 ]/2 +  [ 10.0 x4_1 * x0_2 ]/2 +  [ 10.0 x0_1 * x4_2 ]/2 +  [ 10.0 x4_2 * x0_3 ]/2 +  [ 10.0 x0_2 * x4_3 ]/2 +  [ 10.0 x4_3 * x0_4 ]/2 +  [ 10.0 x0_3 * x4_4 ]/2 +  [ 10.0 x4_4 * x0_5 ]/2 +  [ 10.0 x0_4 * x4_5 ]/2 +  [ 10.0 x4_5 * x0_6 ]/2 +  [ 10.0 x0_5 * x4_6 ]/2
Subject To
 c1: x0_1 + x0_2 + x0_3 + x0_4 + x0_5 + x0_6 = 1
 c2: x1_1 + x1_2 + x1_3 + x1_4 + x1_5 + x1_6 = 1
 c3: x2_1 + x2_2 + x2_3 + x2_4 + x2_5 + x2_6 = 1
 c4: x3_1 + x3_2 + x3_3 + x3_4 + x3_5 + x3_6 = 1
 c5: x4_1 + x4_2 + x4_3 + x4_4 + x4_5 + x4_6 = 1
 c6: x5_1 + x5_2 + x5_3 + x5_4 + x5_5 + x5_6 = 1
 c7: x0_1 + x1_1 + x2_1 + x3_1 + x4_1 + x5_1 = 1
 c8: x0_2 + x1_2 + x2_2 + x3_2 + x4_2 + x5_2 = 1
 c9: x0_3 + x1_3 + x2_3 + x3_3 + x4_3 + x5_3 = 1
 c10: x0_4 + x1_4 + x2_4 + x3_4 + x4_4 + x5_4 = 1
 c11: x0_5 + x1_5 + x2_5 + x3_5 + x4_5 + x5_5 = 1
 c12: x0_6 + x1_6 + x2_6 + x3_6 + x4_6 + x5_6 = 1
 c13: x0_1 = 1
 c14: x5_6 = 1
Binary
 x0_1
 x0_2
 x0_3
 x0_4
 x0_5
 x0_6
 x1_1
 x1_2
 x1_3
 x1_4
 x1_5
 x1_6
 x2_1
 x2_2
 x2_3
 x2_4
 x2_5
 x2_6
 x3_1
 x3_2
 x3_3
 x3_4
 x3_5
 x3_6
 x4_1
 x4_2
 x4_3
 x4_4
 x4_5
 x4_6
 x5_1
 x5_2
 x5_3
 x5_4
 x5_5
 x5_6
End